(declare-fun temp10802_1 () (_ BitVec 64))
(declare-fun var342198 () (_ BitVec 64))
(declare-fun temp10802_3 () (_ BitVec 64))
(declare-fun temp10802_2 () (_ BitVec 64))
(declare-fun temp10802_5 () (_ BitVec 64))
(declare-fun temp10802_4 () (_ BitVec 64))
(declare-fun var1586267 () (_ BitVec 64))
(declare-fun temp10802_6 () (_ BitVec 64))
(declare-fun var1586268 () (_ BitVec 64))
(declare-fun var1586345 () (_ BitVec 64))
(declare-fun temp10802_8 () (_ BitVec 64))
(declare-fun temp10802_7 () (_ BitVec 64))
(declare-fun temp10802_10 () (_ BitVec 64))
(declare-fun temp10802_9 () (_ BitVec 64))
(declare-fun var3486811 () (_ BitVec 64))
(declare-fun temp10802_11 () (_ BitVec 64))
(declare-fun var3486812 () (_ BitVec 64))
(declare-fun var3486889 () (_ BitVec 64))
(declare-fun temp10802_13 () (_ BitVec 64))
(declare-fun temp10802_12 () (_ BitVec 64))
(declare-fun var4402017 () (_ BitVec 64))
(declare-fun temp10802_14 () (_ BitVec 64))
(declare-fun var4466801 () (_ BitVec 64))
(declare-fun temp10802_15 () (_ BitVec 64))
(declare-fun var4663409 () (_ BitVec 64))
(declare-fun temp10802_17 () (_ BitVec 64))
(declare-fun temp10802_16 () (_ BitVec 64))
(declare-fun temp10802_19 () (_ BitVec 64))
(declare-fun temp10802_18 () (_ BitVec 64))
(declare-fun var5649499 () (_ BitVec 64))
(declare-fun temp10802_20 () (_ BitVec 64))
(declare-fun var5649500 () (_ BitVec 64))
(declare-fun var5649577 () (_ BitVec 64))
(declare-fun temp10802_22 () (_ BitVec 64))
(declare-fun temp10802_21 () (_ BitVec 64))
(declare-fun var6302561 () (_ BitVec 64))
(declare-fun temp10802_23 () (_ BitVec 64))
(declare-fun var6367345 () (_ BitVec 64))
(declare-fun temp10802_24 () (_ BitVec 64))
(declare-fun var6432881 () (_ BitVec 64))
(declare-fun var1586516 () (_ BitVec 64))
(declare-fun temp10802_25 () (_ BitVec 64))
(declare-fun var1586517 () (_ BitVec 64))
(declare-fun temp10802_26 () (_ BitVec 64))
(assert (= temp10802_1 #x0000000000000000))
(assert (= var342198 temp10802_1))
(assert (= temp10802_3 #x0000000000000000))
(assert (= temp10802_2 temp10802_3))
(assert (= temp10802_5 #x0000000000000001))
(assert (= temp10802_4 temp10802_5))
(assert (= var1586267 var342198))
(assert (= temp10802_6 #x0000000000000000))
(assert (= var1586268 temp10802_6))
(assert (= var1586345 var1586268))
(assert (= temp10802_8 #x0000000000000000))
(assert (= temp10802_7 temp10802_8))
(assert (= temp10802_10 #x0000000000000001))
(assert (= temp10802_9 temp10802_10))
(assert (= var3486811 var1586267))
(assert (= temp10802_11 #x0000000000000000))
(assert (= var3486812 temp10802_11))
(assert (= var3486889 var3486812))
(assert (= temp10802_13 #x0000000000000001))
(assert (= temp10802_12 temp10802_13))
(assert (= var4402017 var3486811))
(assert (= temp10802_14 #x0000000000000000))
(assert (= var4466801 temp10802_14))
(assert (= temp10802_15 #x0000000000000000))
(assert (= var4663409 temp10802_15))
(assert (= temp10802_17 #x0000000000000000))
(assert (= temp10802_16 temp10802_17))
(assert (= temp10802_19 #x0000000000000001))
(assert (= temp10802_18 temp10802_19))
(assert (= var5649499 var1586267))
(assert (= temp10802_20 #x0000000000000000))
(assert (= var5649500 temp10802_20))
(assert (= var5649577 var5649500))
(assert (= temp10802_22 #x0000000000000001))
(assert (= temp10802_21 temp10802_22))
(assert (= var6302561 var5649499))
(assert (= temp10802_23 #x0000000000000000))
(assert (= var6367345 temp10802_23))
(assert (= temp10802_24 #x0000000000000000))
(assert (= var6432881 temp10802_24))
(assert (= var1586516 var1586345))
(assert (= temp10802_25 #x0000000000000000))
(assert (= var1586517
   (ite (= var1586516 temp10802_25) #x0000000000000001 #x0000000000000000)))
(assert (= temp10802_26 #x0000000000000001))
(assert (= var1586517 temp10802_26))
(model-add temp10802_1 () (_ BitVec 64) #x0000000000000000)
(model-add var342198 () (_ BitVec 64) #x0000000000000000)
(model-add temp10802_3 () (_ BitVec 64) #x0000000000000000)
(model-add temp10802_2 () (_ BitVec 64) #x0000000000000000)
(model-add temp10802_5 () (_ BitVec 64) #x0000000000000001)
(model-add temp10802_4 () (_ BitVec 64) #x0000000000000001)
(model-add var1586267 () (_ BitVec 64) #x0000000000000000)
(model-add temp10802_6 () (_ BitVec 64) #x0000000000000000)
(model-add var1586268 () (_ BitVec 64) #x0000000000000000)
(model-add var1586345 () (_ BitVec 64) #x0000000000000000)
(model-add temp10802_8 () (_ BitVec 64) #x0000000000000000)
(model-add temp10802_7 () (_ BitVec 64) #x0000000000000000)
(model-add temp10802_10 () (_ BitVec 64) #x0000000000000001)
(model-add temp10802_9 () (_ BitVec 64) #x0000000000000001)
(model-add var3486811 () (_ BitVec 64) #x0000000000000000)
(model-add temp10802_11 () (_ BitVec 64) #x0000000000000000)
(model-add var3486812 () (_ BitVec 64) #x0000000000000000)
(model-add var3486889 () (_ BitVec 64) #x0000000000000000)
(model-add temp10802_13 () (_ BitVec 64) #x0000000000000001)
(model-add temp10802_12 () (_ BitVec 64) #x0000000000000001)
(model-add var4402017 () (_ BitVec 64) #x0000000000000000)
(model-add temp10802_14 () (_ BitVec 64) #x0000000000000000)
(model-add var4466801 () (_ BitVec 64) #x0000000000000000)
(model-add temp10802_15 () (_ BitVec 64) #x0000000000000000)
(model-add var4663409 () (_ BitVec 64) #x0000000000000000)
(model-add temp10802_17 () (_ BitVec 64) #x0000000000000000)
(model-add temp10802_16 () (_ BitVec 64) #x0000000000000000)
(model-add temp10802_19 () (_ BitVec 64) #x0000000000000001)
(model-add temp10802_18 () (_ BitVec 64) #x0000000000000001)
(model-add var5649499 () (_ BitVec 64) #x0000000000000000)
(model-add temp10802_20 () (_ BitVec 64) #x0000000000000000)
(model-add var5649500 () (_ BitVec 64) #x0000000000000000)
(model-add var5649577 () (_ BitVec 64) #x0000000000000000)
(model-add temp10802_22 () (_ BitVec 64) #x0000000000000001)
(model-add temp10802_21 () (_ BitVec 64) #x0000000000000001)
(model-add var6302561 () (_ BitVec 64) #x0000000000000000)
(model-add temp10802_23 () (_ BitVec 64) #x0000000000000000)
(model-add var6367345 () (_ BitVec 64) #x0000000000000000)
(model-add temp10802_24 () (_ BitVec 64) #x0000000000000000)
(model-add var6432881 () (_ BitVec 64) #x0000000000000000)
(model-add var1586516 () (_ BitVec 64) #x0000000000000000)
(model-add temp10802_25 () (_ BitVec 64) #x0000000000000000)
(model-add var1586517 () (_ BitVec 64) #x0000000000000001)
(model-add temp10802_26 () (_ BitVec 64) #x0000000000000001)




